20
2
20124
207 362
true
0.25
19 45 21 5 30 4 7 43 42 28 26 37 30 30 43 10 42 32 8 23
29 41 38 24 24 12 50 4 15 11 45 18 15 29 41 3 8 42 3 2
-46 -23 -98 -38 68 -17 -17 98 61 35 -39 63 -80 55 95 -76 19 68 -72 -68
0 0 0 0 0 0 -42 72 0 0 0 0 0 42 0 0 0 0 0 0
0 0 0 0 99 0 0 0 5 0 0 0 0 -63 0 0 24 0 0
0 0 4 -25 -56 0 0 0 0 0 0 0 0 0 0 0 0 0
0 0 0 76 0 13 0 -93 0 -70 0 0 1 0 0 0 27
0 0 42 -88 -56 80 0 0 0 0 0 0 0 0 -45 0
0 0 -95 0 0 0 0 32 0 0 0 0 0 -91 89
0 0 0 0 0 0 0 84 0 -33 0 0 0 69
0 0 0 -9 0 0 0 0 -16 0 0 0 47
0 0 0 -1 0 0 93 0 0 0 88 0
0 0 0 0 0 99 0 0 0 0 0
0 0 0 0 0 0 0 -66 0 0
0 0 0 38 -36 0 0 0 0
0 -21 7 -11 0 -44 0 0
0 0 0 0 0 0 0
0 0 0 0 0 76
0 53 -54 0 27
0 0 0 -74
0 0 0
0 0
0 30 0 0 44 0 -89 62 0 0 0 0 0 0 0 0 0 0 0
0 0 0 -59 0 0 36 0 0 26 5 0 0 0 0 0 0 0
0 0 0 0 -30 0 -51 -46 0 -16 83 35 0 0 0 0 0
0 0 -76 0 0 -93 0 61 0 0 0 0 34 0 45 -31
0 0 0 0 0 0 0 0 -14 0 0 0 0 0 0
0 0 0 0 -26 0 0 0 0 97 -71 0 0 0
0 0 9 0 -45 0 0 -72 0 0 -21 0 0
0 0 0 0 0 0 0 -18 0 -33 0 22
0 0 0 0 -52 0 0 0 0 0 0
0 0 0 0 0 0 0 0 0 0
0 0 0 28 0 36 0 0 0
0 7 -79 0 0 0 -86 0
0 0 0 0 0 0 0
0 62 0 0 0 0
0 0 0 0 0
0 0 31 0
0 0 99
0 0
0
0 0 0 0 0 0 0 0 0 0 0 13 0 0 0 0 -22 0
0 0 91 0 0 -50 -81 0 0 0 0 0 0 0 0 0 -81
0 -40 0 0 0 0 0 0 0 0 13 0 -30 96 0 -33
0 0 0 0 0 -83 -41 0 0 0 0 -78 0 0 0
0 0 0 0 0 0 0 0 0 0 0 0 91 0
0 84 0 0 -12 0 0 -37 79 0 0 0 -47
0 0 0 0 -17 0 0 44 0 -18 0 39
0 0 0 -30 0 0 94 -69 41 0 0
0 26 -99 0 0 70 -18 75 0 0
0 0 0 0 0 0 -74 0 -28
0 0 0 0 0 -93 0 0
0 0 0 0 -72 0 0
0 0 0 0 0 0
0 0 0 0 0
0 0 0 -16
0 0 33
0 0
0
0 0 0 0 0 -74 0 0 0 0 -57 0 0 0 0 0 98
0 19 -83 0 0 0 0 0 -19 0 -88 0 0 72 0 42
0 0 0 -32 0 0 21 0 0 46 0 0 0 0 0
0 0 0 0 0 0 0 0 0 0 0 0 0 46
0 0 -70 58 0 0 7 0 75 51 0 0 0
0 0 0 0 0 0 0 0 0 0 0 0
0 0 0 0 0 -11 0 0 -50 0 0
0 0 0 0 98 0 0 0 2 0
0 0 0 0 0 23 0 55 0
0 0 0 -80 0 0 0 0
0 0 -16 0 0 0 97
0 0 -16 0 0 0
0 0 0 0 0
0 51 0 95
0 -71 0
0 0
0
0 0 9 0 0 33 0 38 0 0 0 0 0 0 0 0
0 33 0 0 0 0 0 0 0 0 -57 0 0 0 0
0 0 0 0 -31 0 0 0 -11 0 0 0 0 0
0 0 0 0 0 0 0 0 -67 48 0 0 0
0 0 0 0 0 0 39 0 0 0 0 0
0 0 0 0 0 -11 -46 46 0 0 76
0 0 0 27 -81 0 0 0 0 -1
0 0 0 0 -9 0 0 0 95
0 0 -48 0 -51 0 0 54
0 -53 0 -5 0 -56 0
0 0 0 -8 0 0
0 0 0 61 0
0 0 -86 0
0 -91 0
0 97
0
0 0 0 0 0 0 0 0 0 0 0 34 0 0 -93
0 0 -50 0 0 0 0 -40 0 -16 -53 0 0 0
0 0 0 0 0 0 0 24 0 81 0 -6 -60
0 -3 -69 52 0 0 68 0 0 0 0 -79
0 0 0 23 0 0 0 91 22 0 0
0 0 0 0 0 0 0 0 12 0
0 0 0 0 0 -75 0 0 0
0 0 -99 0 -56 0 -90 0
0 0 0 5 0 0 0
0 0 0 0 0 0
0 0 92 3 -56
0 0 4 0
0 -54 -83
0 0
0
0 63 0 0 0 0 0 0 0 92 -65 0 0 0
0 -87 0 0 0 0 0 0 0 -77 0 0 0
0 0 0 0 0 0 0 0 0 0 0 -90
0 0 -39 18 87 40 0 0 0 0 0
0 -73 0 -94 0 -91 0 0 0 0
0 -32 -60 0 0 0 13 0 87
0 14 72 0 0 0 2 71
0 53 0 0 0 28 0
0 0 0 0 0 0
0 0 0 0 -87
0 -24 0 50
0 57 0
0 0
0
0 -67 0 -30 -38 0 0 0 0 0 0 0 0
0 0 0 0 0 43 0 0 0 0 9 0
0 0 0 0 -22 0 0 0 0 0 0
0 9 0 0 0 0 0 0 87 0
0 -92 -29 0 0 0 0 0 -59
0 -98 0 13 64 0 0 0
0 0 0 0 0 0 0
0 0 0 0 0 0
0 0 0 0 0
0 0 0 0
0 0 36
0 -93
0
0 0 0 0 0 87 -10 0 83 0 60 0
0 -71 0 38 0 -30 0 0 0 0 86
0 0 82 0 38 97 -35 53 0 0
0 0 43 0 0 0 0 25 0
0 -60 0 0 63 0 0 91
0 0 0 55 0 12 0
0 0 0 0 0 -25
0 0 0 0 -4
0 -67 0 0
0 0 -65
0 0
0
0 0 0 0 0 0 -83 0 29 0 69
0 0 0 42 32 0 0 53 0 0
0 0 -84 31 0 0 0 0 0
0 0 0 0 0 0 0 0
0 0 0 0 0 0 0
0 0 71 0 0 0
0 0 0 0 0
0 0 0 0
0 0 0
0 62
0
0 0 0 52 0 0 0 0 0 0
0 0 0 0 -17 0 0 0 0
0 -77 0 0 0 0 0 19
0 0 0 0 0 0 -14
0 0 0 0 -6 0
0 0 0 0 0
0 0 0 0
0 0 -82
0 -19
0
0 0 0 0 0 -4 -21 0 2
0 0 -6 0 31 0 0 0
0 0 -40 0 99 0 0
0 0 0 0 0 0
0 0 0 0 0
0 0 0 0
0 0 0
0 0
0
0 0 84 0 0 -93 -2 19
0 0 0 0 0 23 0
0 0 0 0 0 -38
0 0 0 0 0
0 -39 -66 0
0 0 0
0 0
0
0 0 0 0 0 0 0
0 -84 0 0 0 0
0 0 0 0 0
0 -72 36 0
0 0 0
0 0
0
0 -75 0 61 0 0
0 68 0 0 55
0 0 0 -13
0 0 0
0 -15
0
0 0 21 0 0
0 0 0 -7
0 0 0
0 -25
0
0 0 0 -96
0 0 21
0 0
0
0 0 0
0 35
0
0 -15
0
0
-130 -191 143 -319 -497 -289 -235 279 451 65 -81 -209 -860 175 341 -43 -5 -194 -86 434
-5.662431941923774 -4.451490514905149 5.2863408521303255 -38.545833333333334 -18.6375 -48.166666666666664 -19.135714285714286 38.11918604651163 20.402380952380952 4.115259740259741 -2.457692307692308 -8.62987987987988 -43.0 5.933908045977011 8.12365286443562 -9.316666666666666 -0.37202380952380953 -5.340773809523809 -19.708333333333336 117.93478260869566
